M+/Instances/S2-10-M+/S2-10-10-2-s-M+.txt
     200      10    0.10
       3       3       2       1       1       1       2       2       3       2       5      10       4       0      10      13       6       1       4      13       1
       3       3       3       3       3       2       2       3       3       3       9      11      14       6       8       0       2       8      13       8       2
       2       1       2       1       1       1       2       3       1       3       4      11       8       4       6       0       7      16       7      13       1
       3       2       1       1       2       3       2       3       1       1       7       1       3      12      12       7      16       7       3       9       1
       2       2       3       3       2       2       1       1       3       3      16      11      16      11      10       0      12      10      13      13       2
       2       2       1       1       1       1       2       3       1       2      10       5       7       3       5      16       5      10       6      10       2
       2       1       1       3       2       1       1       2       1       1       2      14      10       4       0      13       0       7      13       7       1
       2       3       1       3       1       2       1       1       3       3       6      13       0       3       0       7      15       9      15       7       1
       3       3       3       2       2       3       3       2       2       3      13       8      10       8       3       4       6      14       3       5       1
       2       1       2       1       2       2       2       2       1       2       3      16       5       9       0       1      10       2      10       2       2
       3       2       1       1       3       3       2       2       2       2      11       2      10      11      14      13       8       2       3       6       1
       3       3       1       2       3       2       1       2       2       1      16      14       3       8       2      14       7       8       5       4       1
       2       2       1       2       1       1       1       1       2       1       7       9       3       5       3      16       1       2      11       9       1
       3       3       3       3       3       3       1       3       3       1       4       6       4      11      15       2       4       9      10       0       2
       2       3       1       2       1       2       2       3       1       3       1       3      13      10       9      16       4       9      12      16       1
       3       1       1       2       1       1       3       1       1       2       5      10       7      16       2       4       3      15       2      12       2
       2       2       3       3       1       2       3       2       1       2       7       2       1      16       4       2      10      13      15      15       1
       3       1       2       3       3       3       3       3       2       1      16       1      13      15      12       3       6       4      16      16       1
       3       2       3       1       3       3       1       2       3       1       9      16      12       4       4       5       0      13       3      12       2
       3       3       1       2       3       2       2       1       1       2      16       4      11       3      13      15       2       1       1       5       1
       1       2       2       2       1       1       2       2       3       2       3      11       3      14      12       5       0       1       9       5       2
       3       1       2       1       3       3       3       3       3       3      10      12      13       4      16       6       4       9      13       6       2
       1       3       3       3       2       2       3       2       1       1       3       3      13      11       5      14       0       6       8       2       2
       3       2       1       1       1       3       2       2       1       1       2       4      11       2       5       3       7       8       6       8       1
       3       3       3       1       2       2       2       3       3       3      13       7       0      13       2       8       3      15      13      13       1
       2       1       2       3       2       2       3       1       3       2      14       7      13      10      14       4      11      11       3       2       2
       3       1       2       3       3       3       1       1       3       2      14      14       5      10       7      13       4       7       2       6       2
       2       2       1       3       2       1       3       1       2       3       0       8      12       5      16       3      15       1       1      11       1
       2       2       2       1       1       3       3       2       3       3       5       0       0       7       1       7       1       9       2       8       2
       2       1       3       2       3       1       2       3       2       3      12       2      13       6       5       2      12       5       5       6       2
       1       2       2       2       3       3       2       2       3       2       2      13       9       8      10       1       0       0      15      14       1
       3       2       2       1       3       2       1       3       1       1      15       9       8       3       8       2       5      12       5       9       2
       3       3       1       1       3       2       1       3       3       3      16       9      15      13      11       1      14       3       6       5       2
       1       1       1       3       3       2       1       3       3       3       2       2       4      12       0       5       4      15       8       0       2
       1       2       2       3       3       2       3       3       2       2       3      11      11       4      15      14       0       1       3      13       2
       1       2       2       1       2       1       1       1       2       3      16      14      16      15       9      12       5      12      11      13       1
       3       1       2       1       2       2       3       1       1       2       7      16       2       2       8       3       7      13       6       1       1
       1       3       1       1       2       1       1       1       3       3       0      13      15      13       1       5       6      16       3      14       1
       3       1       3       2       2       3       1       2       2       3       7      12      12      12       2      16      15      11      11       4       2
       3       1       2       3       2       2       1       3       2       1       1      14       4       6       9       2      13      13      12      12       2
       2       2       1       2       3       1       1       3       3       1       3       6      12      10       7       9       5       6       1       3       1
       3       2       3       3       1       1       2       1       1       1      15       2       4       1      15       8       4       2       1       7       1
       3       3       2       2       2       2       3       2       1       3       2      10       3      15       3       6       3      13      15      16       1
       3       2       1       1       3       2       2       2       2       1       9      12      16       2       9       5       6       2       5       8       2
       2       2       1       1       1       1       3       3       2       2       3       7      13       1      11       5      14      12      12      13       1
       1       1       3       1       1       1       1       1       2       3       5       6      11      15      11       4      10      14       7      10       1
       2       3       1       3       3       2       2       1       3       1       4       3      13      15       2      12       0       1      11       8       2
       3       1       1       3       2       2       3       1       1       1       0      15       6      16       3      16      10       1      10      11       2
       3       1       1       3       3       2       2       1       2       2       2      12       3      13       2      12       8      12       2       2       2
       3       2       3       1       1       1       2       3       3       3      10      14      16      12      11      16      14      12       7       0       2
       1       3       1       2       1       1       1       2       1       2       3       1       5       6       0       3       2       0      13      13       2
       2       3       2       1       3       3       3       3       1       3       3       3       2      12       5       6      14      16      10       5       2
       3       1       2       3       2       2       1       2       1       3      13      13       5       7       7       7       0      15       7       9       2
       3       1       3       1       1       1       1       3       1       1       4       1      13       8       7       2      12       3       2       1       2
       3       3       3       2       3       2       2       2       1       1      12       1      13       7       9       7      15       5       9      12       2
       2       1       3       3       2       1       1       3       3       2       0      11      10      14       5       9       9      11      12      14       1
       3       2       3       1       3       2       2       2       3       1      14       6       9       4       6      12      10      10      15       5       1
       1       2       3       1       1       3       2       3       1       1       0      16       7      14      16      13       5      10       4      16       2
       1       3       1       1       3       2       2       2       3       3       1      16       7       3       2       2      10      12      14      13       2
       2       2       2       2       3       2       1       3       1       2       7      11       9      14       8      12      13       9      10      10       2
       3       1       1       3       1       1       3       3       2       3      11       6       0      16      10      13       8       4       3      10       2
       1       2       2       2       1       1       3       1       2       2       0       7       2       7      14      14       2      13       7      14       1
       2       1       1       2       2       1       3       3       2       1       1       0       1       2       4       3      14       4      14       2       2
       2       1       1       3       1       2       2       1       3       2       3       2       0       1       0       6       8       4      16       3       2
       2       2       1       2       2       3       2       3       3       1       9       2       9      14       5      10      13      16      16      11       2
       3       3       1       2       2       1       2       3       2       2       3      10       0      15       3      11       5       8       2      10       1
       1       1       1       2       2       1       2       3       1       2       6       3      10      15       5       3       6       4      11       2       1
       1       3       1       1       2       1       3       2       1       2       0      11       3       3      11       8      12       1       4      14       2
       3       1       1       2       1       2       1       3       1       3       1      15      15      10      15       3       6      16      10       1       2
       2       3       3       2       1       3       3       1       3       2       0       7       6      11      11       5       7      16       4      15       2
       3       1       3       2       1       2       2       1       1       3       9       4       3       7      11       6      11      14       7       9       1
       2       2       1       1       1       3       2       3       3       1       4      12      13      14       4       5      11      11      11       6       1
       2       1       3       2       2       2       1       1       1       2       1       1       1      13      11       3       6       4       6       8       1
       3       2       3       1       3       1       2       1       3       1      16      16       0      16      13       3       7       3       3       0       1
       2       3       3       2       1       1       3       3       1       3       4      16      12      11       4       3      14      16      14       9       1
       1       1       3       2       2       3       3       1       3       1      11       5      11       7       8       4       2       1       0       8       1
       1       1       1       1       1       1       2       2       1       1      15      10       1      10       2       7       2       3       3      15       1
       1       1       3       3       1       3       2       3       2       1       0      14      11       7       6      12       4       5      11       3       1
       3       2       2       1       2       3       1       3       2       3       2      16       3      13       5       5       5       7       2       6       2
       3       3       3       3       1       2       1       2       1       3      14       6      14      15       1       8       6      11       2       2       1
       3       2       1       3       3       2       1       1       2       2      11       5      12       6       7       6      14      13       8       3       2
       1       2       1       3       1       1       1       3       3       1       5       0       2      11      12       7       7      16      12      11       1
       3       3       2       3       2       3       1       3       1       1       1      10      13      15       3       4      11       3      11      11       1
       1       3       2       1       3       2       2       1       1       1      16       5      11       6      14       9      16      13       3       1       1
       3       1       3       2       3       2       1       3       1       3       4       3       4       9      10       9       0      12       1      15       2
       3       1       3       3       2       2       2       1       2       2       5       3       5       2       8       7      11       8      16       6       2
       3       3       2       3       1       3       2       2       2       3       9      15       0      16       4       8       7       0      12       3       2
       1       2       1       2       1       2       1       3       1       1      14      16      11       6       6       9      10       6      13      11       2
       2       3       3       3       1       2       3       1       2       1      15       3       9       9      12      12      14      10      10       5       1
       3       1       2       2       2       2       2       2       3       2      13       9       2      10       7       6      10      14       7       4       2
       3       2       1       3       3       2       1       1       2       3      12       8       1       2       0       0      15      14       4       0       2
       1       1       1       2       2       1       1       2       3       1       7      14      12      10       0       3      16       6      10      14       1
       1       2       3       3       1       3       3       2       1       1      14      11       1       0       8      14      11       9      16       1       2
       2       1       1       3       1       2       3       2       2       1      16       9      14       7       5      11      10       2       1       6       1
       3       1       1       1       1       1       2       3       1       1      10       0       0       8       5      14      13       5      14       0       1
       3       1       2       1       1       2       3       3       1       1      11       2       6       9      16      10      15       2       2      16       2
       2       3       3       2       3       3       1       3       1       3       3       6      12       3      16       8      16       0      10       7       2
       3       2       2       3       1       2       3       3       1       2       6      14       2       7       9       2      14       0       9       2       2
       3       3       1       2       1       2       2       2       2       1      14      13       4       2       2      14      16      16       2      13       1
       3       3       1       2       2       3       2       1       2       3       3      11      10       4       6       1       1      15       7       7       2
       3       3       2       3       2       1       1       3       1       3      13       6       1       8      14       1      15       1       3       5       1
       1       2       3       2       1       1       2       2       3       2       0       7      16      12      10      12       7       4       3       4       2
       2       1       3       2       3       2       1       3       3       1       5      14      11       4       8       1      12       5      12      12       2
       2       1       2       2       3       2       1       1       1       2      15      10      11       3       4      12       1      12      15      16       2
       3       1       3       3       3       2       3       3       1       3      10      10      10       6      13       7       1       3      10      15       2
       1       2       2       2       1       2       3       1       3       2       9       0       4       5      11      15      11       2       0      14       2
       1       1       1       1       3       2       1       3       3       2       1      15      16      14       5      11       7       5      13       4       1
       2       1       3       2       2       3       1       1       2       1      16       0       7      13       1       8      11       0      16       4       1
       2       2       1       3       1       1       3       3       1       2      10       3      16       9       3      13       4      14       6       9       2
       3       2       1       2       3       1       2       2       2       3       9       1      16       9      13      15       8       6       4       5       2
       3       1       3       1       2       1       1       2       3       1      12       0       2       6      13      14       8      10      12      10       1
       1       1       1       2       2       2       1       2       1       2      14       7       4       8       2       8       1      10       8      12       1
       1       3       1       3       3       2       3       3       3       1       3       8      12       7       6       3       8       4       6       1       1
       3       3       2       3       1       1       1       2       3       3      15       5       9       6      11       8       1       5       5       2       1
       3       1       3       2       2       2       1       1       3       2       9       0      11      10       2       3       3       0       4      14       1
       3       1       1       2       2       2       1       1       2       2      16      13      10      16      13      11       6       9       6       7       2
       2       3       3       2       1       3       3       3       3       1       4       7      16       7      16       3       4       3       4       0       1
       2       2       1       3       2       1       3       3       1       2       0      10      15       4       9       6      11       9       0      11       1
       2       1       3       2       3       2       3       3       2       3       7      15      11      11       0       8       5      15       4       6       2
       3       2       2       3       1       2       1       3       2       2       3      12      14      15      10       6       2       0       0      11       2
       3       2       2       3       1       3       1       2       1       3       8       6      12       5      12       7       4      13       8      10       2
       2       1       2       2       3       3       2       2       2       3      15       4       4      14       2       5       1       1      13       6       1
       2       1       2       2       3       2       3       3       1       2      10       6      15      15      14       7       3      14       9      16       2
       3       3       3       1       1       1       2       3       2       1       2       1       3       3      16      11       1      10       6       4       2
       2       2       3       3       3       1       2       1       2       3       0      15      14       6      15      14       2      15       6       7       2
       3       2       2       3       1       1       1       3       2       1      14       1       4       7      12       0      13       0       1      15       1
       1       1       2       1       2       3       1       1       2       1      12       3       3      10       6       5       3       6       2      11       1
       2       1       3       1       2       1       2       1       2       1       3       3       1      10      14      15      12      15       9       8       2
       3       2       2       1       2       3       2       2       1       1      12       3      10      15       4       1       9       9       7       3       1
       3       2       3       2       3       2       3       3       2       1       7      15      16       2       9       1       1      12       1       2       2
       1       1       3       1       2       3       1       3       1       1      12       4      13       3       9       9      14       9       6       7       1
       1       2       3       1       1       3       3       1       2       3      15       9       4       2       2      15      10      13       3       6       2
       1       3       3       3       2       2       3       1       2       1       9      11       9       6      10       0      10      10       7      10       2
       2       3       1       3       3       2       3       2       3       2       1      12       1       2       2       0      11       4       7       7       2
       1       1       1       3       3       2       1       3       2       2      14       5      12       4      12       7       6       9       4       9       1
       1       3       2       1       2       2       1       1       3       2       2       0      11      16       2      14       7       5       4       5       1
       2       3       1       3       3       1       2       2       1       2      10       2       7       4      15       9       7      16       3       8       2
       2       1       3       2       3       3       2       1       2       3       9       3       2       3      10       7      11       6       8       5       2
       2       3       2       3       2       2       3       3       3       3      10       1      14       0      11       5       2       5       5      13       1
       3       2       2       2       1       2       2       2       3       3       1       7       1      12      11       8       5       3      11       4       2
       3       3       3       3       1       3       1       1       2       1      10       6       8      13       7       3      14      12      10      11       2
       3       3       2       1       1       3       2       2       2       1       5       5      15      11      16       6       8       5      11       4       2
       3       2       2       1       1       3       1       3       3       2       8      13      13       3      10      14      16       1      14      16       2
       3       3       2       1       3       3       1       3       2       3       3      15      12       5      11      16       2      13       0      15       2
       2       2       1       2       3       2       1       3       3       3       8       6      11       7      15       0      11       2       0      16       1
       2       2       1       1       1       2       2       2       2       2       1      15       2      16       9      10       5       3       4      11       1
       3       2       3       3       3       3       1       2       2       1      11       5      12       6      13       3      12       8       0       0       1
       1       1       2       1       2       3       1       2       1       2       3      13      10       1       9       8       5      13       9       9       1
       1       1       1       2       2       1       1       2       1       1       2       2      11      12      10       6      12      10      14      16       1
       1       2       1       2       2       2       1       1       3       2       7      10       4      15       8       1       6      12       6      15       1
       3       2       2       2       1       2       3       1       1       2       5       7      12       3       1       1      14      16       4       9       2
       2       2       1       2       3       3       1       2       3       2      11      14      15       9       8      15      13      15      11       3       1
       3       1       3       1       3       3       3       3       1       1      14      14       1      12       7      16       3       9       5       4       2
       2       2       3       2       3       2       3       3       2       3       2       0      10       4       8      10       6       0      11      14       1
       2       2       2       1       1       3       3       2       2       2       6       9       3       7      16       1       9       9       3      10       1
       1       2       3       3       2       3       1       1       2       1       1       4       3       6      15       3       3      14       2      12       2
       1       3       1       3       3       3       1       3       3       1       6       5      10       9       4       1       3      12      15      16       1
       2       3       3       1       1       3       2       1       2       3      11      14       2      13       4       1       6       5       4      10       1
       1       2       2       1       1       1       1       1       3       3      16      15       0      15       0       9      11      11       9       1       2
       3       1       3       3       3       2       2       2       1       3       3       0      10      12       3       3      15      11      10       8       2
       3       3       2       1       3       1       1       3       2       1      10       4      14      12       4       8      16       9       5      10       2
       3       1       1       2       3       2       2       3       3       2      11       9       9      15       3      14      12       3      16       9       2
       1       3       2       2       2       3       1       3       2       1       0       0      13       1       4      13      16       2       2       3       1
       2       3       3       3       2       3       2       2       2       2       6       7       2       0       9       4      11       3      16       5       1
       2       3       1       1       2       2       3       1       1       2       2       1       5       5       8       1       6       5       6      14       1
       3       1       2       1       1       1       1       3       3       3      12       0       1       9      16       8       5       8      10      15       2
       3       1       1       1       2       3       2       3       3       2      12       4      15      12       0      15       8      15       4      12       2
       3       2       2       3       2       3       1       2       2       2       5       2       5       7       4      16       4       0      12       7       2
       2       1       1       2       2       2       1       2       2       1      12       4       8       9      11       5       3       9      10      16       1
       2       1       3       1       1       1       2       2       2       2       9       4       1       2      10      10       9       9      10       6       1
       1       2       2       3       1       3       3       2       2       2       2      16      10       3       3      12       5       3      13       7       2
       2       2       2       1       3       2       1       2       2       1      16      12       3       4       1      16      14       2       7       5       1
       2       1       3       3       2       2       2       1       2       3       5       3       1       3       5       9       4       6       1      16       1
       2       3       1       3       1       3       1       2       3       3      16       8       7      16      16      14       5      14       2      16       1
       2       1       1       1       1       2       3       2       3       2      15      10      13      14      12       3      15       3      11       3       1
       1       2       3       2       2       3       1       1       1       1      15       1       7       3      13       6      10      14       9      12       2
       2       2       3       1       3       3       1       1       1       3      16      11       3       4       8       6      12       5       0       1       1
       1       3       3       2       3       3       3       3       2       2       0       8       6       9       9      12       3       4       1       8       2
       2       1       2       1       2       1       3       3       2       2       6      12      12       0       9       5      10       2      14      15       2
       2       2       3       3       3       1       3       1       3       1       3       4       0       3       6      10       9       8      14      11       2
       2       3       1       2       2       3       3       1       1       3       8      13       0      14      16       8       3       9       8       8       2
       1       3       2       2       3       3       2       1       3       2       4      14       8      16       5       3       6       7      13       0       1
       1       1       2       2       2       3       2       2       3       1      15      13      12       8       4      13       8      16       9      13       2
       1       2       3       1       3       1       1       2       2       1       9       5      14       0       4      13      10       7       8       4       1
       3       3       1       2       2       1       3       3       3       1       8      10       9      13      10       2       1       8      10       4       1
       3       1       2       3       2       2       2       2       3       2      13       0       6      13       7       2       6       2       2       0       1
       2       3       2       3       1       3       3       2       2       3       7      14      16       5       5       3      15       9       7       8       2
       1       2       3       1       1       1       3       1       1       2       9       2      11      10      10      16       7      11       5       9       1
       3       1       1       2       3       1       2       3       3       3       1      15      11       1       9      12       6       5       5      16       2
       1       2       3       3       1       2       2       1       3       1       3       8       0      14       0       8      14      10      12       7       1
       1       3       2       2       2       2       2       2       1       1      15      15       4      14       7       1      16      15       7       3       1
       1       3       1       1       1       2       3       1       1       1       8      11       7      15      13      16      12       2      13      15       1
       1       2       1       2       3       2       2       1       1       3      16      13      11       8       9       8       7       4      11       4       1
       2       3       3       1       2       3       1       3       2       2      11      10       0       0       2       4       4      11       0      16       1
       1       1       2       3       2       1       1       3       3       3       2       7      16       5       0      10      12       7      16       0       2
       1       1       3       2       1       2       2       1       3       3      12       2      14       8       3       7       0       2       3      15       1
       2       1       1       1       1       1       3       3       1       2      14      16      14       3      12       7       9       3      10       6       1
       1       2       2       2       3       3       1       3       1       3       8       5       4      15       2      10       6      11       2       7       2
       2       2       1       3       3       1       2       1       2       3      10      10      12      11       0      16      14      11      16      12       1
       3       1       1       2       1       3       2       3       2       3      11      13      16      12      13      10      14       7       7      15       2
      43      44      32      47      41      39      34      59      54      54
     114      84      69     119      90     117      65     124     109     110
     170     205     145     192     155     140     175     170     208     250